2-dimensional/CL_07_25_05.vbp
2
150 150 
25
24 29 30
30 26 72
32 30 4
74 70 88
67 68 54
30 21 64
87 96 90
69 77 26
74 78 94
66 69 28
36 31 72
82 81 49
89 87 54
47 51 19
55 50 28
77 72 61
24 18 84
73 65 23
29 21 67
44 50 53
55 45 54
27 18 16
30 28 9
82 92 54
68 59 77
