datasets/2-dimensional-benchmark/CL_07_25_05.txt
150 150 
0 30 24 29 
1 72 30 26 
2 4 32 30 
3 88 74 70 
4 54 67 68 
5 64 30 21 
6 90 87 96 
7 26 69 77 
8 94 74 78 
9 28 66 69 
10 72 36 31 
11 49 82 81 
12 54 89 87 
13 19 47 51 
14 28 55 50 
15 61 77 72 
16 84 24 18 
17 23 73 65 
18 67 29 21 
19 53 44 50 
20 54 55 45 
21 16 27 18 
22 9 30 28 
23 54 82 92 
24 77 68 59 
